\ LP format - for model browsing. Use MPS format to capture full model detail.
Minimize
  0.5 g_01 + 0.5 g_02 + 0.5 g_03 + 0.5 g_04 + 0.5 g_05 + 0.5 g_06 + 0.5 g_07
   + 0.5 g_08 + 0.5 g_09 + 0.5 g_010 + 0.5 g_10 + 0.5 g_12 + 0.5 g_13
   + 0.5 g_14 + 0.5 g_15 + 0.5 g_16 + 0.5 g_17 + 0.5 g_18 + 0.5 g_19
   + 0.5 g_110 + 0.5 g_20 + 0.5 g_21 + 0.5 g_23 + 0.5 g_24 + 0.5 g_25
   + 0.5 g_26 + 0.5 g_27 + 0.5 g_28 + 0.5 g_29 + 0.5 g_210 + 0.5 g_30
   + 0.5 g_31 + 0.5 g_32 + 0.5 g_34 + 0.5 g_35 + 0.5 g_36 + 0.5 g_37
   + 0.5 g_38 + 0.5 g_39 + 0.5 g_310 + 0.5 g_40 + 0.5 g_41 + 0.5 g_42
   + 0.5 g_43 + 0.5 g_45 + 0.5 g_46 + 0.5 g_47 + 0.5 g_48 + 0.5 g_49
   + 0.5 g_410 + 0.5 g_50 + 0.5 g_51 + 0.5 g_52 + 0.5 g_53 + 0.5 g_54
   + 0.5 g_56 + 0.5 g_57 + 0.5 g_58 + 0.5 g_59 + 0.5 g_510 + 0.5 g_60
   + 0.5 g_61 + 0.5 g_62 + 0.5 g_63 + 0.5 g_64 + 0.5 g_65 + 0.5 g_67
   + 0.5 g_68 + 0.5 g_69 + 0.5 g_610 + 0.5 g_70 + 0.5 g_71 + 0.5 g_72
   + 0.5 g_73 + 0.5 g_74 + 0.5 g_75 + 0.5 g_76 + 0.5 g_78 + 0.5 g_79
   + 0.5 g_710 + 0.5 g_80 + 0.5 g_81 + 0.5 g_82 + 0.5 g_83 + 0.5 g_84
   + 0.5 g_85 + 0.5 g_86 + 0.5 g_87 + 0.5 g_89 + 0.5 g_810 + 0.5 g_90
   + 0.5 g_91 + 0.5 g_92 + 0.5 g_93 + 0.5 g_94 + 0.5 g_95 + 0.5 g_96
   + 0.5 g_97 + 0.5 g_98 + 0.5 g_910 + 0.5 g_100 + 0.5 g_101 + 0.5 g_102
   + 0.5 g_103 + 0.5 g_104 + 0.5 g_105 + 0.5 g_106 + 0.5 g_107 + 0.5 g_108
   + 0.5 g_109 + g1surplus + g2slack
Subject To
 R0: - f_0 - f_1 + l_01 + l_10 + b_01 + b_10 >= -1
 R1: - f_0 - f_2 + l_02 + l_20 + b_02 + b_20 >= -1
 R2: - f_0 - f_3 + l_03 + l_30 + b_03 + b_30 >= -1
 R3: - f_0 - f_4 + l_04 + l_40 + b_04 + b_40 >= -1
 R4: - f_0 - f_5 + l_05 + l_50 + b_05 + b_50 >= -1
 R5: - f_0 - f_6 + l_06 + l_60 + b_06 + b_60 >= -1
 R6: - f_0 - f_7 + l_07 + l_70 + b_07 + b_70 >= -1
 R7: - f_0 - f_8 + l_08 + l_80 + b_08 + b_80 >= -1
 R8: - f_0 - f_9 + l_09 + l_90 + b_09 + b_90 >= -1
 R9: - f_0 - f_10 + l_010 + l_100 + b_010 + b_100 >= -1
 R10: - f_0 - f_1 + l_01 + l_10 + b_01 + b_10 >= -1
 R11: - f_1 - f_2 + l_12 + l_21 + b_12 + b_21 >= -1
 R12: - f_1 - f_3 + l_13 + l_31 + b_13 + b_31 >= -1
 R13: - f_1 - f_4 + l_14 + l_41 + b_14 + b_41 >= -1
 R14: - f_1 - f_5 + l_15 + l_51 + b_15 + b_51 >= -1
 R15: - f_1 - f_6 + l_16 + l_61 + b_16 + b_61 >= -1
 R16: - f_1 - f_7 + l_17 + l_71 + b_17 + b_71 >= -1
 R17: - f_1 - f_8 + l_18 + l_81 + b_18 + b_81 >= -1
 R18: - f_1 - f_9 + l_19 + l_91 + b_19 + b_91 >= -1
 R19: - f_1 - f_10 + l_110 + l_101 + b_110 + b_101 >= -1
 R20: - f_0 - f_2 + l_02 + l_20 + b_02 + b_20 >= -1
 R21: - f_1 - f_2 + l_12 + l_21 + b_12 + b_21 >= -1
 R22: - f_2 - f_3 + l_23 + l_32 + b_23 + b_32 >= -1
 R23: - f_2 - f_4 + l_24 + l_42 + b_24 + b_42 >= -1
 R24: - f_2 - f_5 + l_25 + l_52 + b_25 + b_52 >= -1
 R25: - f_2 - f_6 + l_26 + l_62 + b_26 + b_62 >= -1
 R26: - f_2 - f_7 + l_27 + l_72 + b_27 + b_72 >= -1
 R27: - f_2 - f_8 + l_28 + l_82 + b_28 + b_82 >= -1
 R28: - f_2 - f_9 + l_29 + l_92 + b_29 + b_92 >= -1
 R29: - f_2 - f_10 + l_210 + l_102 + b_210 + b_102 >= -1
 R30: - f_0 - f_3 + l_03 + l_30 + b_03 + b_30 >= -1
 R31: - f_1 - f_3 + l_13 + l_31 + b_13 + b_31 >= -1
 R32: - f_2 - f_3 + l_23 + l_32 + b_23 + b_32 >= -1
 R33: - f_3 - f_4 + l_34 + l_43 + b_34 + b_43 >= -1
 R34: - f_3 - f_5 + l_35 + l_53 + b_35 + b_53 >= -1
 R35: - f_3 - f_6 + l_36 + l_63 + b_36 + b_63 >= -1
 R36: - f_3 - f_7 + l_37 + l_73 + b_37 + b_73 >= -1
 R37: - f_3 - f_8 + l_38 + l_83 + b_38 + b_83 >= -1
 R38: - f_3 - f_9 + l_39 + l_93 + b_39 + b_93 >= -1
 R39: - f_3 - f_10 + l_310 + l_103 + b_310 + b_103 >= -1
 R40: - f_0 - f_4 + l_04 + l_40 + b_04 + b_40 >= -1
 R41: - f_1 - f_4 + l_14 + l_41 + b_14 + b_41 >= -1
 R42: - f_2 - f_4 + l_24 + l_42 + b_24 + b_42 >= -1
 R43: - f_3 - f_4 + l_34 + l_43 + b_34 + b_43 >= -1
 R44: - f_4 - f_5 + l_45 + l_54 + b_45 + b_54 >= -1
 R45: - f_4 - f_6 + l_46 + l_64 + b_46 + b_64 >= -1
 R46: - f_4 - f_7 + l_47 + l_74 + b_47 + b_74 >= -1
 R47: - f_4 - f_8 + l_48 + l_84 + b_48 + b_84 >= -1
 R48: - f_4 - f_9 + l_49 + l_94 + b_49 + b_94 >= -1
 R49: - f_4 - f_10 + l_410 + l_104 + b_410 + b_104 >= -1
 R50: - f_0 - f_5 + l_05 + l_50 + b_05 + b_50 >= -1
 R51: - f_1 - f_5 + l_15 + l_51 + b_15 + b_51 >= -1
 R52: - f_2 - f_5 + l_25 + l_52 + b_25 + b_52 >= -1
 R53: - f_3 - f_5 + l_35 + l_53 + b_35 + b_53 >= -1
 R54: - f_4 - f_5 + l_45 + l_54 + b_45 + b_54 >= -1
 R55: - f_5 - f_6 + l_56 + l_65 + b_56 + b_65 >= -1
 R56: - f_5 - f_7 + l_57 + l_75 + b_57 + b_75 >= -1
 R57: - f_5 - f_8 + l_58 + l_85 + b_58 + b_85 >= -1
 R58: - f_5 - f_9 + l_59 + l_95 + b_59 + b_95 >= -1
 R59: - f_5 - f_10 + l_510 + l_105 + b_510 + b_105 >= -1
 R60: - f_0 - f_6 + l_06 + l_60 + b_06 + b_60 >= -1
 R61: - f_1 - f_6 + l_16 + l_61 + b_16 + b_61 >= -1
 R62: - f_2 - f_6 + l_26 + l_62 + b_26 + b_62 >= -1
 R63: - f_3 - f_6 + l_36 + l_63 + b_36 + b_63 >= -1
 R64: - f_4 - f_6 + l_46 + l_64 + b_46 + b_64 >= -1
 R65: - f_5 - f_6 + l_56 + l_65 + b_56 + b_65 >= -1
 R66: - f_6 - f_7 + l_67 + l_76 + b_67 + b_76 >= -1
 R67: - f_6 - f_8 + l_68 + l_86 + b_68 + b_86 >= -1
 R68: - f_6 - f_9 + l_69 + l_96 + b_69 + b_96 >= -1
 R69: - f_6 - f_10 + l_610 + l_106 + b_610 + b_106 >= -1
 R70: - f_0 - f_7 + l_07 + l_70 + b_07 + b_70 >= -1
 R71: - f_1 - f_7 + l_17 + l_71 + b_17 + b_71 >= -1
 R72: - f_2 - f_7 + l_27 + l_72 + b_27 + b_72 >= -1
 R73: - f_3 - f_7 + l_37 + l_73 + b_37 + b_73 >= -1
 R74: - f_4 - f_7 + l_47 + l_74 + b_47 + b_74 >= -1
 R75: - f_5 - f_7 + l_57 + l_75 + b_57 + b_75 >= -1
 R76: - f_6 - f_7 + l_67 + l_76 + b_67 + b_76 >= -1
 R77: - f_7 - f_8 + l_78 + l_87 + b_78 + b_87 >= -1
 R78: - f_7 - f_9 + l_79 + l_97 + b_79 + b_97 >= -1
 R79: - f_7 - f_10 + l_710 + l_107 + b_710 + b_107 >= -1
 R80: - f_0 - f_8 + l_08 + l_80 + b_08 + b_80 >= -1
 R81: - f_1 - f_8 + l_18 + l_81 + b_18 + b_81 >= -1
 R82: - f_2 - f_8 + l_28 + l_82 + b_28 + b_82 >= -1
 R83: - f_3 - f_8 + l_38 + l_83 + b_38 + b_83 >= -1
 R84: - f_4 - f_8 + l_48 + l_84 + b_48 + b_84 >= -1
 R85: - f_5 - f_8 + l_58 + l_85 + b_58 + b_85 >= -1
 R86: - f_6 - f_8 + l_68 + l_86 + b_68 + b_86 >= -1
 R87: - f_7 - f_8 + l_78 + l_87 + b_78 + b_87 >= -1
 R88: - f_8 - f_9 + l_89 + l_98 + b_89 + b_98 >= -1
 R89: - f_8 - f_10 + l_810 + l_108 + b_810 + b_108 >= -1
 R90: - f_0 - f_9 + l_09 + l_90 + b_09 + b_90 >= -1
 R91: - f_1 - f_9 + l_19 + l_91 + b_19 + b_91 >= -1
 R92: - f_2 - f_9 + l_29 + l_92 + b_29 + b_92 >= -1
 R93: - f_3 - f_9 + l_39 + l_93 + b_39 + b_93 >= -1
 R94: - f_4 - f_9 + l_49 + l_94 + b_49 + b_94 >= -1
 R95: - f_5 - f_9 + l_59 + l_95 + b_59 + b_95 >= -1
 R96: - f_6 - f_9 + l_69 + l_96 + b_69 + b_96 >= -1
 R97: - f_7 - f_9 + l_79 + l_97 + b_79 + b_97 >= -1
 R98: - f_8 - f_9 + l_89 + l_98 + b_89 + b_98 >= -1
 R99: - f_9 - f_10 + l_910 + l_109 + b_910 + b_109 >= -1
 R100: - f_0 - f_10 + l_010 + l_100 + b_010 + b_100 >= -1
 R101: - f_1 - f_10 + l_110 + l_101 + b_110 + b_101 >= -1
 R102: - f_2 - f_10 + l_210 + l_102 + b_210 + b_102 >= -1
 R103: - f_3 - f_10 + l_310 + l_103 + b_310 + b_103 >= -1
 R104: - f_4 - f_10 + l_410 + l_104 + b_410 + b_104 >= -1
 R105: - f_5 - f_10 + l_510 + l_105 + b_510 + b_105 >= -1
 R106: - f_6 - f_10 + l_610 + l_106 + b_610 + b_106 >= -1
 R107: - f_7 - f_10 + l_710 + l_107 + b_710 + b_107 >= -1
 R108: - f_8 - f_10 + l_810 + l_108 + b_810 + b_108 >= -1
 R109: - f_9 - f_10 + l_910 + l_109 + b_910 + b_109 >= -1
 R110: x_0 - x_1 + 26 l_01 <= 21
 R111: x_0 - x_2 + 26 l_02 <= 21
 R112: x_0 - x_3 + 26 l_03 <= 21
 R113: x_0 - x_4 + 26 l_04 <= 21
 R114: x_0 - x_5 + 26 l_05 <= 21
 R115: x_0 - x_6 + 26 l_06 <= 21
 R116: x_0 - x_7 + 26 l_07 <= 21
 R117: x_0 - x_8 + 26 l_08 <= 21
 R118: x_0 - x_9 + 26 l_09 <= 21
 R119: x_0 - x_10 + 26 l_010 <= 21
 R120: - x_0 + x_1 + 26 l_10 <= 22
 R121: x_1 - x_2 + 26 l_12 <= 22
 R122: x_1 - x_3 + 26 l_13 <= 22
 R123: x_1 - x_4 + 26 l_14 <= 22
 R124: x_1 - x_5 + 26 l_15 <= 22
 R125: x_1 - x_6 + 26 l_16 <= 22
 R126: x_1 - x_7 + 26 l_17 <= 22
 R127: x_1 - x_8 + 26 l_18 <= 22
 R128: x_1 - x_9 + 26 l_19 <= 22
 R129: x_1 - x_10 + 26 l_110 <= 22
 R130: - x_0 + x_2 + 26 l_20 <= 21
 R131: - x_1 + x_2 + 26 l_21 <= 21
 R132: x_2 - x_3 + 26 l_23 <= 21
 R133: x_2 - x_4 + 26 l_24 <= 21
 R134: x_2 - x_5 + 26 l_25 <= 21
 R135: x_2 - x_6 + 26 l_26 <= 21
 R136: x_2 - x_7 + 26 l_27 <= 21
 R137: x_2 - x_8 + 26 l_28 <= 21
 R138: x_2 - x_9 + 26 l_29 <= 21
 R139: x_2 - x_10 + 26 l_210 <= 21
 R140: - x_0 + x_3 + 26 l_30 <= 21
 R141: - x_1 + x_3 + 26 l_31 <= 21
 R142: - x_2 + x_3 + 26 l_32 <= 21
 R143: x_3 - x_4 + 26 l_34 <= 21
 R144: x_3 - x_5 + 26 l_35 <= 21
 R145: x_3 - x_6 + 26 l_36 <= 21
 R146: x_3 - x_7 + 26 l_37 <= 21
 R147: x_3 - x_8 + 26 l_38 <= 21
 R148: x_3 - x_9 + 26 l_39 <= 21
 R149: x_3 - x_10 + 26 l_310 <= 21
 R150: - x_0 + x_4 + 26 l_40 <= 19
 R151: - x_1 + x_4 + 26 l_41 <= 19
 R152: - x_2 + x_4 + 26 l_42 <= 19
 R153: - x_3 + x_4 + 26 l_43 <= 19
 R154: x_4 - x_5 + 26 l_45 <= 19
 R155: x_4 - x_6 + 26 l_46 <= 19
 R156: x_4 - x_7 + 26 l_47 <= 19
 R157: x_4 - x_8 + 26 l_48 <= 19
 R158: x_4 - x_9 + 26 l_49 <= 19
 R159: x_4 - x_10 + 26 l_410 <= 19
 R160: - x_0 + x_5 + 26 l_50 <= 22
 R161: - x_1 + x_5 + 26 l_51 <= 22
 R162: - x_2 + x_5 + 26 l_52 <= 22
 R163: - x_3 + x_5 + 26 l_53 <= 22
 R164: - x_4 + x_5 + 26 l_54 <= 22
 R165: x_5 - x_6 + 26 l_56 <= 22
 R166: x_5 - x_7 + 26 l_57 <= 22
 R167: x_5 - x_8 + 26 l_58 <= 22
 R168: x_5 - x_9 + 26 l_59 <= 22
 R169: x_5 - x_10 + 26 l_510 <= 22
 R170: - x_0 + x_6 + 26 l_60 <= 21
 R171: - x_1 + x_6 + 26 l_61 <= 21
 R172: - x_2 + x_6 + 26 l_62 <= 21
 R173: - x_3 + x_6 + 26 l_63 <= 21
 R174: - x_4 + x_6 + 26 l_64 <= 21
 R175: - x_5 + x_6 + 26 l_65 <= 21
 R176: x_6 - x_7 + 26 l_67 <= 21
 R177: x_6 - x_8 + 26 l_68 <= 21
 R178: x_6 - x_9 + 26 l_69 <= 21
 R179: x_6 - x_10 + 26 l_610 <= 21
 R180: - x_0 + x_7 + 26 l_70 <= 22
 R181: - x_1 + x_7 + 26 l_71 <= 22
 R182: - x_2 + x_7 + 26 l_72 <= 22
 R183: - x_3 + x_7 + 26 l_73 <= 22
 R184: - x_4 + x_7 + 26 l_74 <= 22
 R185: - x_5 + x_7 + 26 l_75 <= 22
 R186: - x_6 + x_7 + 26 l_76 <= 22
 R187: x_7 - x_8 + 26 l_78 <= 22
 R188: x_7 - x_9 + 26 l_79 <= 22
 R189: x_7 - x_10 + 26 l_710 <= 22
 R190: - x_0 + x_8 + 26 l_80 <= 22
 R191: - x_1 + x_8 + 26 l_81 <= 22
 R192: - x_2 + x_8 + 26 l_82 <= 22
 R193: - x_3 + x_8 + 26 l_83 <= 22
 R194: - x_4 + x_8 + 26 l_84 <= 22
 R195: - x_5 + x_8 + 26 l_85 <= 22
 R196: - x_6 + x_8 + 26 l_86 <= 22
 R197: - x_7 + x_8 + 26 l_87 <= 22
 R198: x_8 - x_9 + 26 l_89 <= 22
 R199: x_8 - x_10 + 26 l_810 <= 22
 R200: - x_0 + x_9 + 26 l_90 <= 21
 R201: - x_1 + x_9 + 26 l_91 <= 21
 R202: - x_2 + x_9 + 26 l_92 <= 21
 R203: - x_3 + x_9 + 26 l_93 <= 21
 R204: - x_4 + x_9 + 26 l_94 <= 21
 R205: - x_5 + x_9 + 26 l_95 <= 21
 R206: - x_6 + x_9 + 26 l_96 <= 21
 R207: - x_7 + x_9 + 26 l_97 <= 21
 R208: - x_8 + x_9 + 26 l_98 <= 21
 R209: x_9 - x_10 + 26 l_910 <= 21
 R210: - x_0 + x_10 + 26 l_100 <= 21
 R211: - x_1 + x_10 + 26 l_101 <= 21
 R212: - x_2 + x_10 + 26 l_102 <= 21
 R213: - x_3 + x_10 + 26 l_103 <= 21
 R214: - x_4 + x_10 + 26 l_104 <= 21
 R215: - x_5 + x_10 + 26 l_105 <= 21
 R216: - x_6 + x_10 + 26 l_106 <= 21
 R217: - x_7 + x_10 + 26 l_107 <= 21
 R218: - x_8 + x_10 + 26 l_108 <= 21
 R219: - x_9 + x_10 + 26 l_109 <= 21
 R220: y_0 - y_1 + 31 b_01 <= 26
 R221: y_0 - y_2 + 31 b_02 <= 26
 R222: y_0 - y_3 + 31 b_03 <= 26
 R223: y_0 - y_4 + 31 b_04 <= 26
 R224: y_0 - y_5 + 31 b_05 <= 26
 R225: y_0 - y_6 + 31 b_06 <= 26
 R226: y_0 - y_7 + 31 b_07 <= 26
 R227: y_0 - y_8 + 31 b_08 <= 26
 R228: y_0 - y_9 + 31 b_09 <= 26
 R229: y_0 - y_10 + 31 b_010 <= 26
 R230: - y_0 + y_1 + 31 b_10 <= 27
 R231: y_1 - y_2 + 31 b_12 <= 27
 R232: y_1 - y_3 + 31 b_13 <= 27
 R233: y_1 - y_4 + 31 b_14 <= 27
 R234: y_1 - y_5 + 31 b_15 <= 27
 R235: y_1 - y_6 + 31 b_16 <= 27
 R236: y_1 - y_7 + 31 b_17 <= 27
 R237: y_1 - y_8 + 31 b_18 <= 27
 R238: y_1 - y_9 + 31 b_19 <= 27
 R239: y_1 - y_10 + 31 b_110 <= 27
 R240: - y_0 + y_2 + 31 b_20 <= 26
 R241: - y_1 + y_2 + 31 b_21 <= 26
 R242: y_2 - y_3 + 31 b_23 <= 26
 R243: y_2 - y_4 + 31 b_24 <= 26
 R244: y_2 - y_5 + 31 b_25 <= 26
 R245: y_2 - y_6 + 31 b_26 <= 26
 R246: y_2 - y_7 + 31 b_27 <= 26
 R247: y_2 - y_8 + 31 b_28 <= 26
 R248: y_2 - y_9 + 31 b_29 <= 26
 R249: y_2 - y_10 + 31 b_210 <= 26
 R250: - y_0 + y_3 + 31 b_30 <= 26
 R251: - y_1 + y_3 + 31 b_31 <= 26
 R252: - y_2 + y_3 + 31 b_32 <= 26
 R253: y_3 - y_4 + 31 b_34 <= 26
 R254: y_3 - y_5 + 31 b_35 <= 26
 R255: y_3 - y_6 + 31 b_36 <= 26
 R256: y_3 - y_7 + 31 b_37 <= 26
 R257: y_3 - y_8 + 31 b_38 <= 26
 R258: y_3 - y_9 + 31 b_39 <= 26
 R259: y_3 - y_10 + 31 b_310 <= 26
 R260: - y_0 + y_4 + 31 b_40 <= 24
 R261: - y_1 + y_4 + 31 b_41 <= 24
 R262: - y_2 + y_4 + 31 b_42 <= 24
 R263: - y_3 + y_4 + 31 b_43 <= 24
 R264: y_4 - y_5 + 31 b_45 <= 24
 R265: y_4 - y_6 + 31 b_46 <= 24
 R266: y_4 - y_7 + 31 b_47 <= 24
 R267: y_4 - y_8 + 31 b_48 <= 24
 R268: y_4 - y_9 + 31 b_49 <= 24
 R269: y_4 - y_10 + 31 b_410 <= 24
 R270: - y_0 + y_5 + 31 b_50 <= 27
 R271: - y_1 + y_5 + 31 b_51 <= 27
 R272: - y_2 + y_5 + 31 b_52 <= 27
 R273: - y_3 + y_5 + 31 b_53 <= 27
 R274: - y_4 + y_5 + 31 b_54 <= 27
 R275: y_5 - y_6 + 31 b_56 <= 27
 R276: y_5 - y_7 + 31 b_57 <= 27
 R277: y_5 - y_8 + 31 b_58 <= 27
 R278: y_5 - y_9 + 31 b_59 <= 27
 R279: y_5 - y_10 + 31 b_510 <= 27
 R280: - y_0 + y_6 + 31 b_60 <= 24
 R281: - y_1 + y_6 + 31 b_61 <= 24
 R282: - y_2 + y_6 + 31 b_62 <= 24
 R283: - y_3 + y_6 + 31 b_63 <= 24
 R284: - y_4 + y_6 + 31 b_64 <= 24
 R285: - y_5 + y_6 + 31 b_65 <= 24
 R286: y_6 - y_7 + 31 b_67 <= 24
 R287: y_6 - y_8 + 31 b_68 <= 24
 R288: y_6 - y_9 + 31 b_69 <= 24
 R289: y_6 - y_10 + 31 b_610 <= 24
 R290: - y_0 + y_7 + 31 b_70 <= 27
 R291: - y_1 + y_7 + 31 b_71 <= 27
 R292: - y_2 + y_7 + 31 b_72 <= 27
 R293: - y_3 + y_7 + 31 b_73 <= 27
 R294: - y_4 + y_7 + 31 b_74 <= 27
 R295: - y_5 + y_7 + 31 b_75 <= 27
 R296: - y_6 + y_7 + 31 b_76 <= 27
 R297: y_7 - y_8 + 31 b_78 <= 27
 R298: y_7 - y_9 + 31 b_79 <= 27
 R299: y_7 - y_10 + 31 b_710 <= 27
 R300: - y_0 + y_8 + 31 b_80 <= 27
 R301: - y_1 + y_8 + 31 b_81 <= 27
 R302: - y_2 + y_8 + 31 b_82 <= 27
 R303: - y_3 + y_8 + 31 b_83 <= 27
 R304: - y_4 + y_8 + 31 b_84 <= 27
 R305: - y_5 + y_8 + 31 b_85 <= 27
 R306: - y_6 + y_8 + 31 b_86 <= 27
 R307: - y_7 + y_8 + 31 b_87 <= 27
 R308: y_8 - y_9 + 31 b_89 <= 27
 R309: y_8 - y_10 + 31 b_810 <= 27
 R310: - y_0 + y_9 + 31 b_90 <= 26
 R311: - y_1 + y_9 + 31 b_91 <= 26
 R312: - y_2 + y_9 + 31 b_92 <= 26
 R313: - y_3 + y_9 + 31 b_93 <= 26
 R314: - y_4 + y_9 + 31 b_94 <= 26
 R315: - y_5 + y_9 + 31 b_95 <= 26
 R316: - y_6 + y_9 + 31 b_96 <= 26
 R317: - y_7 + y_9 + 31 b_97 <= 26
 R318: - y_8 + y_9 + 31 b_98 <= 26
 R319: y_9 - y_10 + 31 b_910 <= 26
 R320: - y_0 + y_10 + 31 b_100 <= 26
 R321: - y_1 + y_10 + 31 b_101 <= 26
 R322: - y_2 + y_10 + 31 b_102 <= 26
 R323: - y_3 + y_10 + 31 b_103 <= 26
 R324: - y_4 + y_10 + 31 b_104 <= 26
 R325: - y_5 + y_10 + 31 b_105 <= 26
 R326: - y_6 + y_10 + 31 b_106 <= 26
 R327: - y_7 + y_10 + 31 b_107 <= 26
 R328: - y_8 + y_10 + 31 b_108 <= 26
 R329: - y_9 + y_10 + 31 b_109 <= 26
 R330: x_0 >= 0
 R331: x_1 >= 0
 R332: x_2 >= 0
 R333: x_3 >= 0
 R334: x_4 >= 0
 R335: x_5 >= 0
 R336: x_6 >= 0
 R337: x_7 >= 0
 R338: x_8 >= 0
 R339: x_9 >= 0
 R340: x_10 >= 0
 R341: x_0 <= 21
 R342: x_1 <= 22
 R343: x_2 <= 21
 R344: x_3 <= 21
 R345: x_4 <= 19
 R346: x_5 <= 22
 R347: x_6 <= 21
 R348: x_7 <= 22
 R349: x_8 <= 22
 R350: x_9 <= 21
 R351: x_10 <= 21
 R352: y_0 >= 0
 R353: y_1 >= 0
 R354: y_2 >= 0
 R355: y_3 >= 0
 R356: y_4 >= 0
 R357: y_5 >= 0
 R358: y_6 >= 0
 R359: y_7 >= 0
 R360: y_8 >= 0
 R361: y_9 >= 0
 R362: y_10 >= 0
 R363: y_0 <= 26
 R364: y_1 <= 27
 R365: y_2 <= 26
 R366: y_3 <= 26
 R367: y_4 <= 24
 R368: y_5 <= 27
 R369: y_6 <= 24
 R370: y_7 <= 27
 R371: y_8 <= 27
 R372: y_9 <= 26
 R373: y_10 <= 26
 R374: - 25 f_0 - 16 f_1 - 25 f_2 - 25 f_3 - 49 f_4 - 16 f_5 - 35 f_6
   - 16 f_7 - 16 f_8 - 25 f_9 - 25 f_10 - g1surplus + g1slack = -786
 R375: - 25 f_0 - 16 f_1 - 25 f_2 - 25 f_3 - 49 f_4 - 16 f_5 - 35 f_6
   - 16 f_7 - 16 f_8 - 25 f_9 - 25 f_10 - g1surplus + g1slack = -786
 R376: - 25 f_0 - 16 f_1 - 25 f_2 - 25 f_3 - 49 f_4 - 16 f_5 - 35 f_6
   - 16 f_7 - 16 f_8 - 25 f_9 - 25 f_10 - g1surplus + g1slack = -786
 R377: - 25 f_0 - 16 f_1 - 25 f_2 - 25 f_3 - 49 f_4 - 16 f_5 - 35 f_6
   - 16 f_7 - 16 f_8 - 25 f_9 - 25 f_10 - g1surplus + g1slack = -786
 R378: - 25 f_0 - 16 f_1 - 25 f_2 - 25 f_3 - 49 f_4 - 16 f_5 - 35 f_6
   - 16 f_7 - 16 f_8 - 25 f_9 - 25 f_10 - g1surplus + g1slack = -786
 R379: - 25 f_0 - 16 f_1 - 25 f_2 - 25 f_3 - 49 f_4 - 16 f_5 - 35 f_6
   - 16 f_7 - 16 f_8 - 25 f_9 - 25 f_10 - g1surplus + g1slack = -786
 R380: - 25 f_0 - 16 f_1 - 25 f_2 - 25 f_3 - 49 f_4 - 16 f_5 - 35 f_6
   - 16 f_7 - 16 f_8 - 25 f_9 - 25 f_10 - g1surplus + g1slack = -786
 R381: - 25 f_0 - 16 f_1 - 25 f_2 - 25 f_3 - 49 f_4 - 16 f_5 - 35 f_6
   - 16 f_7 - 16 f_8 - 25 f_9 - 25 f_10 - g1surplus + g1slack = -786
 R382: - 25 f_0 - 16 f_1 - 25 f_2 - 25 f_3 - 49 f_4 - 16 f_5 - 35 f_6
   - 16 f_7 - 16 f_8 - 25 f_9 - 25 f_10 - g1surplus + g1slack = -786
 R383: - 25 f_0 - 16 f_1 - 25 f_2 - 25 f_3 - 49 f_4 - 16 f_5 - 35 f_6
   - 16 f_7 - 16 f_8 - 25 f_9 - 25 f_10 - g1surplus + g1slack = -786
 R384: - 25 f_0 - 16 f_1 - 25 f_2 - 25 f_3 - 49 f_4 - 16 f_5 - 35 f_6
   - 16 f_7 - 16 f_8 - 25 f_9 - 25 f_10 - g1surplus + g1slack = -786
 R385: 12 f_0 + 8 f_1 + 12 f_2 + 12 f_3 + 20 f_4 + 8 f_5 + 12 f_6 + 8 f_7
   + 8 f_8 + 12 f_9 + 12 f_10 - g2surplus + g2slack = 100
 R386: 12 f_0 + 8 f_1 + 12 f_2 + 12 f_3 + 20 f_4 + 8 f_5 + 12 f_6 + 8 f_7
   + 8 f_8 + 12 f_9 + 12 f_10 - g2surplus + g2slack = 100
 R387: 12 f_0 + 8 f_1 + 12 f_2 + 12 f_3 + 20 f_4 + 8 f_5 + 12 f_6 + 8 f_7
   + 8 f_8 + 12 f_9 + 12 f_10 - g2surplus + g2slack = 100
 R388: 12 f_0 + 8 f_1 + 12 f_2 + 12 f_3 + 20 f_4 + 8 f_5 + 12 f_6 + 8 f_7
   + 8 f_8 + 12 f_9 + 12 f_10 - g2surplus + g2slack = 100
 R389: 12 f_0 + 8 f_1 + 12 f_2 + 12 f_3 + 20 f_4 + 8 f_5 + 12 f_6 + 8 f_7
   + 8 f_8 + 12 f_9 + 12 f_10 - g2surplus + g2slack = 100
 R390: 12 f_0 + 8 f_1 + 12 f_2 + 12 f_3 + 20 f_4 + 8 f_5 + 12 f_6 + 8 f_7
   + 8 f_8 + 12 f_9 + 12 f_10 - g2surplus + g2slack = 100
 R391: 12 f_0 + 8 f_1 + 12 f_2 + 12 f_3 + 20 f_4 + 8 f_5 + 12 f_6 + 8 f_7
   + 8 f_8 + 12 f_9 + 12 f_10 - g2surplus + g2slack = 100
 R392: 12 f_0 + 8 f_1 + 12 f_2 + 12 f_3 + 20 f_4 + 8 f_5 + 12 f_6 + 8 f_7
   + 8 f_8 + 12 f_9 + 12 f_10 - g2surplus + g2slack = 100
 R393: 12 f_0 + 8 f_1 + 12 f_2 + 12 f_3 + 20 f_4 + 8 f_5 + 12 f_6 + 8 f_7
   + 8 f_8 + 12 f_9 + 12 f_10 - g2surplus + g2slack = 100
 R394: 12 f_0 + 8 f_1 + 12 f_2 + 12 f_3 + 20 f_4 + 8 f_5 + 12 f_6 + 8 f_7
   + 8 f_8 + 12 f_9 + 12 f_10 - g2surplus + g2slack = 100
 R395: 12 f_0 + 8 f_1 + 12 f_2 + 12 f_3 + 20 f_4 + 8 f_5 + 12 f_6 + 8 f_7
   + 8 f_8 + 12 f_9 + 12 f_10 - g2surplus + g2slack = 100
 R396: - f_0 - f_1 + g_01 >= -1
 R397: - f_0 - f_2 + g_02 >= -1
 R398: - f_0 - f_3 + g_03 >= -1
 R399: - f_0 - f_4 + g_04 >= -1
 R400: - f_0 - f_5 + g_05 >= -1
 R401: - f_0 - f_6 + g_06 >= -1
 R402: - f_0 - f_7 + g_07 >= -1
 R403: - f_0 - f_8 + g_08 >= -1
 R404: - f_0 - f_9 + g_09 >= -1
 R405: - f_0 - f_10 + g_010 >= -1
 R406: - f_0 - f_1 + g_10 >= -1
 R407: - f_1 - f_2 + g_12 >= -1
 R408: - f_1 - f_3 + g_13 >= -1
 R409: - f_1 - f_4 + g_14 >= -1
 R410: - f_1 - f_5 + g_15 >= -1
 R411: - f_1 - f_6 + g_16 >= -1
 R412: - f_1 - f_7 + g_17 >= -1
 R413: - f_1 - f_8 + g_18 >= -1
 R414: - f_1 - f_9 + g_19 >= -1
 R415: - f_1 - f_10 + g_110 >= -1
 R416: - f_0 - f_2 + g_20 >= -1
 R417: - f_1 - f_2 + g_21 >= -1
 R418: - f_2 - f_3 + g_23 >= -1
 R419: - f_2 - f_4 + g_24 >= -1
 R420: - f_2 - f_5 + g_25 >= -1
 R421: - f_2 - f_6 + g_26 >= -1
 R422: - f_2 - f_7 + g_27 >= -1
 R423: - f_2 - f_8 + g_28 >= -1
 R424: - f_2 - f_9 + g_29 >= -1
 R425: - f_2 - f_10 + g_210 >= -1
 R426: - f_0 - f_3 + g_30 >= -1
 R427: - f_1 - f_3 + g_31 >= -1
 R428: - f_2 - f_3 + g_32 >= -1
 R429: - f_3 - f_4 + g_34 >= -1
 R430: - f_3 - f_5 + g_35 >= -1
 R431: - f_3 - f_6 + g_36 >= -1
 R432: - f_3 - f_7 + g_37 >= -1
 R433: - f_3 - f_8 + g_38 >= -1
 R434: - f_3 - f_9 + g_39 >= -1
 R435: - f_3 - f_10 + g_310 >= -1
 R436: - f_0 - f_4 + g_40 >= -1
 R437: - f_1 - f_4 + g_41 >= -1
 R438: - f_2 - f_4 + g_42 >= -1
 R439: - f_3 - f_4 + g_43 >= -1
 R440: - f_4 - f_5 + g_45 >= -1
 R441: - f_4 - f_6 + g_46 >= -1
 R442: - f_4 - f_7 + g_47 >= -1
 R443: - f_4 - f_8 + g_48 >= -1
 R444: - f_4 - f_9 + g_49 >= -1
 R445: - f_4 - f_10 + g_410 >= -1
 R446: - f_0 - f_5 + g_50 >= -1
 R447: - f_1 - f_5 + g_51 >= -1
 R448: - f_2 - f_5 + g_52 >= -1
 R449: - f_3 - f_5 + g_53 >= -1
 R450: - f_4 - f_5 + g_54 >= -1
 R451: - f_5 - f_6 + g_56 >= -1
 R452: - f_5 - f_7 + g_57 >= -1
 R453: - f_5 - f_8 + g_58 >= -1
 R454: - f_5 - f_9 + g_59 >= -1
 R455: - f_5 - f_10 + g_510 >= -1
 R456: - f_0 - f_6 + g_60 >= -1
 R457: - f_1 - f_6 + g_61 >= -1
 R458: - f_2 - f_6 + g_62 >= -1
 R459: - f_3 - f_6 + g_63 >= -1
 R460: - f_4 - f_6 + g_64 >= -1
 R461: - f_5 - f_6 + g_65 >= -1
 R462: - f_6 - f_7 + g_67 >= -1
 R463: - f_6 - f_8 + g_68 >= -1
 R464: - f_6 - f_9 + g_69 >= -1
 R465: - f_6 - f_10 + g_610 >= -1
 R466: - f_0 - f_7 + g_70 >= -1
 R467: - f_1 - f_7 + g_71 >= -1
 R468: - f_2 - f_7 + g_72 >= -1
 R469: - f_3 - f_7 + g_73 >= -1
 R470: - f_4 - f_7 + g_74 >= -1
 R471: - f_5 - f_7 + g_75 >= -1
 R472: - f_6 - f_7 + g_76 >= -1
 R473: - f_7 - f_8 + g_78 >= -1
 R474: - f_7 - f_9 + g_79 >= -1
 R475: - f_7 - f_10 + g_710 >= -1
 R476: - f_0 - f_8 + g_80 >= -1
 R477: - f_1 - f_8 + g_81 >= -1
 R478: - f_2 - f_8 + g_82 >= -1
 R479: - f_3 - f_8 + g_83 >= -1
 R480: - f_4 - f_8 + g_84 >= -1
 R481: - f_5 - f_8 + g_85 >= -1
 R482: - f_6 - f_8 + g_86 >= -1
 R483: - f_7 - f_8 + g_87 >= -1
 R484: - f_8 - f_9 + g_89 >= -1
 R485: - f_8 - f_10 + g_810 >= -1
 R486: - f_0 - f_9 + g_90 >= -1
 R487: - f_1 - f_9 + g_91 >= -1
 R488: - f_2 - f_9 + g_92 >= -1
 R489: - f_3 - f_9 + g_93 >= -1
 R490: - f_4 - f_9 + g_94 >= -1
 R491: - f_5 - f_9 + g_95 >= -1
 R492: - f_6 - f_9 + g_96 >= -1
 R493: - f_7 - f_9 + g_97 >= -1
 R494: - f_8 - f_9 + g_98 >= -1
 R495: - f_9 - f_10 + g_910 >= -1
 R496: - f_0 - f_10 + g_100 >= -1
 R497: - f_1 - f_10 + g_101 >= -1
 R498: - f_2 - f_10 + g_102 >= -1
 R499: - f_3 - f_10 + g_103 >= -1
 R500: - f_4 - f_10 + g_104 >= -1
 R501: - f_5 - f_10 + g_105 >= -1
 R502: - f_6 - f_10 + g_106 >= -1
 R503: - f_7 - f_10 + g_107 >= -1
 R504: - f_8 - f_10 + g_108 >= -1
 R505: - f_9 - f_10 + g_109 >= -1
Bounds
Binaries
 f_0 f_1 f_2 f_3 f_4 f_5 f_6 f_7 f_8 f_9 f_10 l_01 l_02 l_03 l_04 l_05 l_06
 l_07 l_08 l_09 l_010 l_10 l_12 l_13 l_14 l_15 l_16 l_17 l_18 l_19 l_110
 l_20 l_21 l_23 l_24 l_25 l_26 l_27 l_28 l_29 l_210 l_30 l_31 l_32 l_34
 l_35 l_36 l_37 l_38 l_39 l_310 l_40 l_41 l_42 l_43 l_45 l_46 l_47 l_48
 l_49 l_410 l_50 l_51 l_52 l_53 l_54 l_56 l_57 l_58 l_59 l_510 l_60 l_61
 l_62 l_63 l_64 l_65 l_67 l_68 l_69 l_610 l_70 l_71 l_72 l_73 l_74 l_75
 l_76 l_78 l_79 l_710 l_80 l_81 l_82 l_83 l_84 l_85 l_86 l_87 l_89 l_810
 l_90 l_91 l_92 l_93 l_94 l_95 l_96 l_97 l_98 l_910 l_100 l_101 l_102 l_103
 l_104 l_105 l_106 l_107 l_108 l_109 b_01 b_02 b_03 b_04 b_05 b_06 b_07
 b_08 b_09 b_010 b_10 b_12 b_13 b_14 b_15 b_16 b_17 b_18 b_19 b_110 b_20
 b_21 b_23 b_24 b_25 b_26 b_27 b_28 b_29 b_210 b_30 b_31 b_32 b_34 b_35
 b_36 b_37 b_38 b_39 b_310 b_40 b_41 b_42 b_43 b_45 b_46 b_47 b_48 b_49
 b_410 b_50 b_51 b_52 b_53 b_54 b_56 b_57 b_58 b_59 b_510 b_60 b_61 b_62
 b_63 b_64 b_65 b_67 b_68 b_69 b_610 b_70 b_71 b_72 b_73 b_74 b_75 b_76
 b_78 b_79 b_710 b_80 b_81 b_82 b_83 b_84 b_85 b_86 b_87 b_89 b_810 b_90
 b_91 b_92 b_93 b_94 b_95 b_96 b_97 b_98 b_910 b_100 b_101 b_102 b_103
 b_104 b_105 b_106 b_107 b_108 b_109 g_01 g_02 g_03 g_04 g_05 g_06 g_07
 g_08 g_09 g_010 g_10 g_12 g_13 g_14 g_15 g_16 g_17 g_18 g_19 g_110 g_20
 g_21 g_23 g_24 g_25 g_26 g_27 g_28 g_29 g_210 g_30 g_31 g_32 g_34 g_35
 g_36 g_37 g_38 g_39 g_310 g_40 g_41 g_42 g_43 g_45 g_46 g_47 g_48 g_49
 g_410 g_50 g_51 g_52 g_53 g_54 g_56 g_57 g_58 g_59 g_510 g_60 g_61 g_62
 g_63 g_64 g_65 g_67 g_68 g_69 g_610 g_70 g_71 g_72 g_73 g_74 g_75 g_76
 g_78 g_79 g_710 g_80 g_81 g_82 g_83 g_84 g_85 g_86 g_87 g_89 g_810 g_90
 g_91 g_92 g_93 g_94 g_95 g_96 g_97 g_98 g_910 g_100 g_101 g_102 g_103
 g_104 g_105 g_106 g_107 g_108 g_109
End
